166	32	4	151	
10	10	10	10

0	0	0	0	0	0	2	1	12
1	2	1	0	1	1	1	2
2	2	0	1	4	8	1	3
3	4	0	2	3	5	1	4
4	6	4	0	6	4	1	5
5	0	1	2	2	2	1	6
6	3	8	0	5	10	1	7
7	0	4	3	3	3	1	8
8	4	1	4	0	7	1	9
9	0	5	4	5	4	1	10
10	0	3	8	3	8	1	11
11	4	5	0	6	4	2	30	13
12	1	3	2	0	1	2	30	14
13	7	4	6	0	2	1	14
14	4	0	4	7	1	1	15
15	5	5	0	4	10	2	25	16
16	5	2	0	5	1	1	17
17	0	2	4	3	4	1	18
18	1	4	3	0	6	1	19
19	5	3	0	7	9	1	20
20	4	4	2	0	3	1	21
21	4	5	0	3	10	1	22
22	5	6	0	1	9	1	23
23	2	0	5	6	2	1	24
24	10	2	8	0	7	1	26
25	3	7	0	1	10	1	26
26	5	7	0	8	4	1	27
27	5	2	0	3	10	1	28
28	2	5	4	0	10	1	29
29	5	7	1	0	6	1	31
30	2	0	9	2	5	1	31
31	0	0	0	0	0	0
